p cnf 729 3416
10
-91
-172
-253
-334
-415
-496
-577
-658
-19
-28
-37
-46
-55
-64
-73
-82
-100
-109
-181
-190
15
-96
-177
-258
-339
-420
-501
-582
-663
-6
-24
-33
-42
-51
-60
-69
-78
-87
-105
-168
-186
27
-108
-189
-270
-351
-432
-513
-594
-675
-9
-18
-36
-45
-54
-63
-72
-81
-90
-99
-171
-180
31
-112
-193
-274
-355
-436
-517
-598
-679
-4
-13
-22
-40
-49
-58
-67
-76
-121
-130
-202
-211
41
-122
-203
-284
-365
-446
-527
-608
-689
-5
-14
-23
-32
-50
-59
-68
-77
-113
-131
-194
-212
48
-129
-210
-291
-372
-453
-534
-615
-696
-3
-12
-21
-30
-39
-57
-66
-75
-111
-120
-192
-201
62
-143
-224
-305
-386
-467
-548
-629
-710
-8
-17
-26
-35
-44
-53
-71
-80
-152
-161
-233
-242
65
-146
-227
-308
-389
-470
-551
-632
-713
-2
-11
-20
-29
-38
-47
-56
-74
-137
-155
-218
-236
79
-160
-241
-322
-403
-484
-565
-646
-727
-7
-16
-25
-34
-43
-52
-61
-70
-142
-151
-223
-232
86
-5
-167
-248
-329
-410
-491
-572
-653
-95
-104
-113
-122
-131
-140
-149
-158
-14
-23
-176
-185
97
-16
-178
-259
-340
-421
-502
-583
-664
-88
-106
-115
-124
-133
-142
-151
-160
-7
-25
-169
-187
166
-4
-85
-247
-328
-409
-490
-571
-652
-175
-184
-193
-202
-211
-220
-229
-238
-13
-22
-94
-103
183
-21
-102
-264
-345
-426
-507
-588
-669
-165
-174
-192
-201
-210
-219
-228
-237
-3
-12
-84
-93
245
-2
-83
-164
-326
-407
-488
-569
-650
-254
-263
-272
-281
-290
-299
-308
-317
-335
-344
-416
-425
275
-32
-113
-194
-356
-437
-518
-599
-680
-248
-257
-266
-284
-293
-302
-311
-320
-365
-374
-446
-455
333
-9
-90
-171
-252
-414
-495
-576
-657
-342
-351
-360
-369
-378
-387
-396
-405
-261
-270
-423
-432
363
-39
-120
-201
-282
-444
-525
-606
-687
-327
-336
-345
-354
-372
-381
-390
-399
-273
-291
-435
-453
412
-7
-88
-169
-250
-331
-493
-574
-655
-421
-430
-439
-448
-457
-466
-475
-484
-259
-268
-340
-349
452
-47
-128
-209
-290
-371
-533
-614
-695
-407
-416
-425
-434
-443
-461
-470
-479
-272
-281
-353
-362
494
-8
-89
-170
-251
-332
-413
-575
-656
-503
-512
-521
-530
-539
-548
-557
-566
-584
-593
-665
-674
542
-56
-137
-218
-299
-380
-461
-623
-704
-488
-497
-506
-515
-524
-533
-551
-560
-632
-641
-713
-722
570
-3
-84
-165
-246
-327
-408
-489
-651
-579
-588
-597
-606
-615
-624
-633
-642
-498
-507
-660
-669
636
-69
-150
-231
-312
-393
-474
-555
-717
-573
-582
-591
-600
-609
-618
-627
-645
-546
-564
-708
-726
654
-6
-87
-168
-249
-330
-411
-492
-573
-663
-672
-681
-690
-699
-708
-717
-726
-501
-510
-582
-591
729
-81
-162
-243
-324
-405
-486
-567
-648
-657
-666
-675
-684
-693
-702
-711
-720
-549
-558
-630
-639
1 2 3 4 5 6 7 8 9
10 11 12 13 14 15 16 17 18
19 20 21 22 23 24 25 26 27
28 29 30 31 32 33 34 35 36
37 38 39 40 41 42 43 44 45
46 47 48 49 50 51 52 53 54
55 56 57 58 59 60 61 62 63
64 65 66 67 68 69 70 71 72
73 74 75 76 77 78 79 80 81
82 83 84 85 86 87 88 89 90
91 92 93 94 95 96 97 98 99
100 101 102 103 104 105 106 107 108
109 110 111 112 113 114 115 116 117
118 119 120 121 122 123 124 125 126
127 128 129 130 131 132 133 134 135
136 137 138 139 140 141 142 143 144
145 146 147 148 149 150 151 152 153
154 155 156 157 158 159 160 161 162
163 164 165 166 167 168 169 170 171
172 173 174 175 176 177 178 179 180
181 182 183 184 185 186 187 188 189
190 191 192 193 194 195 196 197 198
199 200 201 202 203 204 205 206 207
208 209 210 211 212 213 214 215 216
217 218 219 220 221 222 223 224 225
226 227 228 229 230 231 232 233 234
235 236 237 238 239 240 241 242 243
244 245 246 247 248 249 250 251 252
253 254 255 256 257 258 259 260 261
262 263 264 265 266 267 268 269 270
271 272 273 274 275 276 277 278 279
280 281 282 283 284 285 286 287 288
289 290 291 292 293 294 295 296 297
298 299 300 301 302 303 304 305 306
307 308 309 310 311 312 313 314 315
316 317 318 319 320 321 322 323 324
325 326 327 328 329 330 331 332 333
334 335 336 337 338 339 340 341 342
343 344 345 346 347 348 349 350 351
352 353 354 355 356 357 358 359 360
361 362 363 364 365 366 367 368 369
370 371 372 373 374 375 376 377 378
379 380 381 382 383 384 385 386 387
388 389 390 391 392 393 394 395 396
397 398 399 400 401 402 403 404 405
406 407 408 409 410 411 412 413 414
415 416 417 418 419 420 421 422 423
424 425 426 427 428 429 430 431 432
433 434 435 436 437 438 439 440 441
442 443 444 445 446 447 448 449 450
451 452 453 454 455 456 457 458 459
460 461 462 463 464 465 466 467 468
469 470 471 472 473 474 475 476 477
478 479 480 481 482 483 484 485 486
487 488 489 490 491 492 493 494 495
496 497 498 499 500 501 502 503 504
505 506 507 508 509 510 511 512 513
514 515 516 517 518 519 520 521 522
523 524 525 526 527 528 529 530 531
532 533 534 535 536 537 538 539 540
541 542 543 544 545 546 547 548 549
550 551 552 553 554 555 556 557 558
559 560 561 562 563 564 565 566 567
568 569 570 571 572 573 574 575 576
577 578 579 580 581 582 583 584 585
586 587 588 589 590 591 592 593 594
595 596 597 598 599 600 601 602 603
604 605 606 607 608 609 610 611 612
613 614 615 616 617 618 619 620 621
622 623 624 625 626 627 628 629 630
631 632 633 634 635 636 637 638 639
640 641 642 643 644 645 646 647 648
649 650 651 652 653 654 655 656 657
658 659 660 661 662 663 664 665 666
667 668 669 670 671 672 673 674 675
676 677 678 679 680 681 682 683 684
685 686 687 688 689 690 691 692 693
694 695 696 697 698 699 700 701 702
703 704 705 706 707 708 709 710 711
712 713 714 715 716 717 718 719 720
721 722 723 724 725 726 727 728 729
1 10 19 28 37 46 55 64 73
2 11 20 29 38 47 56 65 74
3 12 21 30 39 48 57 66 75
4 13 22 31 40 49 58 67 76
5 14 23 32 41 50 59 68 77
6 15 24 33 42 51 60 69 78
7 16 25 34 43 52 61 70 79
8 17 26 35 44 53 62 71 80
9 18 27 36 45 54 63 72 81
82 91 100 109 118 127 136 145 154
83 92 101 110 119 128 137 146 155
84 93 102 111 120 129 138 147 156
85 94 103 112 121 130 139 148 157
86 95 104 113 122 131 140 149 158
87 96 105 114 123 132 141 150 159
88 97 106 115 124 133 142 151 160
89 98 107 116 125 134 143 152 161
90 99 108 117 126 135 144 153 162
163 172 181 190 199 208 217 226 235
164 173 182 191 200 209 218 227 236
165 174 183 192 201 210 219 228 237
166 175 184 193 202 211 220 229 238
167 176 185 194 203 212 221 230 239
168 177 186 195 204 213 222 231 240
169 178 187 196 205 214 223 232 241
170 179 188 197 206 215 224 233 242
171 180 189 198 207 216 225 234 243
244 253 262 271 280 289 298 307 316
245 254 263 272 281 290 299 308 317
246 255 264 273 282 291 300 309 318
247 256 265 274 283 292 301 310 319
248 257 266 275 284 293 302 311 320
249 258 267 276 285 294 303 312 321
250 259 268 277 286 295 304 313 322
251 260 269 278 287 296 305 314 323
252 261 270 279 288 297 306 315 324
325 334 343 352 361 370 379 388 397
326 335 344 353 362 371 380 389 398
327 336 345 354 363 372 381 390 399
328 337 346 355 364 373 382 391 400
329 338 347 356 365 374 383 392 401
330 339 348 357 366 375 384 393 402
331 340 349 358 367 376 385 394 403
332 341 350 359 368 377 386 395 404
333 342 351 360 369 378 387 396 405
406 415 424 433 442 451 460 469 478
407 416 425 434 443 452 461 470 479
408 417 426 435 444 453 462 471 480
409 418 427 436 445 454 463 472 481
410 419 428 437 446 455 464 473 482
411 420 429 438 447 456 465 474 483
412 421 430 439 448 457 466 475 484
413 422 431 440 449 458 467 476 485
414 423 432 441 450 459 468 477 486
487 496 505 514 523 532 541 550 559
488 497 506 515 524 533 542 551 560
489 498 507 516 525 534 543 552 561
490 499 508 517 526 535 544 553 562
491 500 509 518 527 536 545 554 563
492 501 510 519 528 537 546 555 564
493 502 511 520 529 538 547 556 565
494 503 512 521 530 539 548 557 566
495 504 513 522 531 540 549 558 567
568 577 586 595 604 613 622 631 640
569 578 587 596 605 614 623 632 641
570 579 588 597 606 615 624 633 642
571 580 589 598 607 616 625 634 643
572 581 590 599 608 617 626 635 644
573 582 591 600 609 618 627 636 645
574 583 592 601 610 619 628 637 646
575 584 593 602 611 620 629 638 647
576 585 594 603 612 621 630 639 648
649 658 667 676 685 694 703 712 721
650 659 668 677 686 695 704 713 722
651 660 669 678 687 696 705 714 723
652 661 670 679 688 697 706 715 724
653 662 671 680 689 698 707 716 725
654 663 672 681 690 699 708 717 726
655 664 673 682 691 700 709 718 727
656 665 674 683 692 701 710 719 728
657 666 675 684 693 702 711 720 729
1 82 163 244 325 406 487 568 649
2 83 164 245 326 407 488 569 650
3 84 165 246 327 408 489 570 651
4 85 166 247 328 409 490 571 652
5 86 167 248 329 410 491 572 653
6 87 168 249 330 411 492 573 654
7 88 169 250 331 412 493 574 655
8 89 170 251 332 413 494 575 656
9 90 171 252 333 414 495 576 657
10 91 172 253 334 415 496 577 658
11 92 173 254 335 416 497 578 659
12 93 174 255 336 417 498 579 660
13 94 175 256 337 418 499 580 661
14 95 176 257 338 419 500 581 662
15 96 177 258 339 420 501 582 663
16 97 178 259 340 421 502 583 664
17 98 179 260 341 422 503 584 665
18 99 180 261 342 423 504 585 666
19 100 181 262 343 424 505 586 667
20 101 182 263 344 425 506 587 668
21 102 183 264 345 426 507 588 669
22 103 184 265 346 427 508 589 670
23 104 185 266 347 428 509 590 671
24 105 186 267 348 429 510 591 672
25 106 187 268 349 430 511 592 673
26 107 188 269 350 431 512 593 674
27 108 189 270 351 432 513 594 675
28 109 190 271 352 433 514 595 676
29 110 191 272 353 434 515 596 677
30 111 192 273 354 435 516 597 678
31 112 193 274 355 436 517 598 679
32 113 194 275 356 437 518 599 680
33 114 195 276 357 438 519 600 681
34 115 196 277 358 439 520 601 682
35 116 197 278 359 440 521 602 683
36 117 198 279 360 441 522 603 684
37 118 199 280 361 442 523 604 685
38 119 200 281 362 443 524 605 686
39 120 201 282 363 444 525 606 687
40 121 202 283 364 445 526 607 688
41 122 203 284 365 446 527 608 689
42 123 204 285 366 447 528 609 690
43 124 205 286 367 448 529 610 691
44 125 206 287 368 449 530 611 692
45 126 207 288 369 450 531 612 693
46 127 208 289 370 451 532 613 694
47 128 209 290 371 452 533 614 695
48 129 210 291 372 453 534 615 696
49 130 211 292 373 454 535 616 697
50 131 212 293 374 455 536 617 698
51 132 213 294 375 456 537 618 699
52 133 214 295 376 457 538 619 700
53 134 215 296 377 458 539 620 701
54 135 216 297 378 459 540 621 702
55 136 217 298 379 460 541 622 703
56 137 218 299 380 461 542 623 704
57 138 219 300 381 462 543 624 705
58 139 220 301 382 463 544 625 706
59 140 221 302 383 464 545 626 707
60 141 222 303 384 465 546 627 708
61 142 223 304 385 466 547 628 709
62 143 224 305 386 467 548 629 710
63 144 225 306 387 468 549 630 711
64 145 226 307 388 469 550 631 712
65 146 227 308 389 470 551 632 713
66 147 228 309 390 471 552 633 714
67 148 229 310 391 472 553 634 715
68 149 230 311 392 473 554 635 716
69 150 231 312 393 474 555 636 717
70 151 232 313 394 475 556 637 718
71 152 233 314 395 476 557 638 719
72 153 234 315 396 477 558 639 720
73 154 235 316 397 478 559 640 721
74 155 236 317 398 479 560 641 722
75 156 237 318 399 480 561 642 723
76 157 238 319 400 481 562 643 724
77 158 239 320 401 482 563 644 725
78 159 240 321 402 483 564 645 726
79 160 241 322 403 484 565 646 727
80 161 242 323 404 485 566 647 728
81 162 243 324 405 486 567 648 729
1 10 1982 91 100163172181
2 11 2083 92 101164173182
3 12 2184 93 102165174183
4 13 2285 94 103166175184
5 14 2386 95 104167176185
6 15 2487 96 105168177186
7 16 2588 97 106169178187
8 17 2689 98 107170179188
9 18 2790 99 108171180189
28 37 46109 118 127190199208
29 38 47110 119 128191200209
30 39 48111 120 129192201210
31 40 49112 121 130193202211
32 41 50113 122 131194203212
33 42 51114 123 132195204213
34 43 52115 124 133196205214
35 44 53116 125 134197206215
36 45 54117 126 135198207216
55 64 73136 145 154217226235
56 65 74137 146 155218227236
57 66 75138 147 156219228237
58 67 76139 148 157220229238
59 68 77140 149 158221230239
60 69 78141 150 159222231240
61 70 79142 151 160223232241
62 71 80143 152 161224233242
63 72 81144 153 162225234243
244 253 262325 334 343406415424
245 254 263326 335 344407416425
246 255 264327 336 345408417426
247 256 265328 337 346409418427
248 257 266329 338 347410419428
249 258 267330 339 348411420429
250 259 268331 340 349412421430
251 260 269332 341 350413422431
252 261 270333 342 351414423432
271 280 289352 361 370433442451
272 281 290353 362 371434443452
273 282 291354 363 372435444453
274 283 292355 364 373436445454
275 284 293356 365 374437446455
276 285 294357 366 375438447456
277 286 295358 367 376439448457
278 287 296359 368 377440449458
279 288 297360 369 378441450459
298 307 316379 388 397460469478
299 308 317380 389 398461470479
300 309 318381 390 399462471480
301 310 319382 391 400463472481
302 311 320383 392 401464473482
303 312 321384 393 402465474483
304 313 322385 394 403466475484
305 314 323386 395 404467476485
306 315 324387 396 405468477486
487 496 505568 577 586649658667
488 497 506569 578 587650659668
489 498 507570 579 588651660669
490 499 508571 580 589652661670
491 500 509572 581 590653662671
492 501 510573 582 591654663672
493 502 511574 583 592655664673
494 503 512575 584 593656665674
495 504 513576 585 594657666675
514 523 532595 604 613676685694
515 524 533596 605 614677686695
516 525 534597 606 615678687696
517 526 535598 607 616679688697
518 527 536599 608 617680689698
519 528 537600 609 618681690699
520 529 538601 610 619682691700
521 530 539602 611 620683692701
522 531 540603 612 621684693702
541 550 559622 631 640703712721
542 551 560623 632 641704713722
543 552 561624 633 642705714723
544 553 562625 634 643706715724
545 554 563626 635 644707716725
546 555 564627 636 645708717726
547 556 565628 637 646709718727
548 557 566629 638 647710719728
549 558 567630 639 648711720729
